(set-logic QF_S)
(declare-fun var_0xINPUT_120967 () String)
(assert (and (= (len var_0xINPUT_120967) 0) (= (len var_0xINPUT_120967) 0) (not (= var_0xINPUT_120967 "Example:")) (not (= var_0xINPUT_120967 "6JX7G3VKFq"))))
(check-sat var_0xINPUT_120967)